args: ../partial/bp/M9.cnf cubes/M9.cubes 100 50 50
iteration: 0
running icadical
lim: 100
refuted: 31494, progress: 31494/148624

iteration: 1
running icadical
lim: 100
refuted: 21341, progress: 52835/148624

iteration: 2
running icadical
lim: 100
refuted: 19425, progress: 72260/148624

iteration: 3
running icadical
lim: 100
refuted: 22149, progress: 94409/148624

iteration: 4
running icadical
lim: 100
refuted: 7592, progress: 102001/148624

c --- [ banner ] -------------------------------------------------------------
c 
c CaDiCaL Radically Simplified CDCL SAT Solver
c Copyright (c) 2016-2019 Armin Biere, JKU Linz
c 
c Version 1.2.1 92d72896c49b30ad2d50c8e1061ca0681cd23e60
c g++ (GCC) 4.8.5 20150623 (Red Hat 4.8.5-39) -Wall -Wextra -O3 -DNDEBUG -std=c++0x
c Thu Jan 30 22:37:32 EST 2020 Linux lov6.int.autonlab.org 3.10.0-1062.4.1.el7.x86_64 x86_64
c 
c --- [ parsing input ] ------------------------------------------------------
c 
c reading DIMACS file from '<stdin>' (use '-h' for a list of common options)
c found 'p cnf 3064 90219' header
c parsed 192220 clauses in 0.34 seconds process time
c disconnecting from '<stdin>'
c after reading 3210378 bytes 3.1 MB
c 
c --- [ options ] ------------------------------------------------------------
c 
c   --report=false                 (different from default 'true')
c 
c --- [ solving ] ------------------------------------------------------------
c 
c 
c --- [ result ] -------------------------------------------------------------
c 
s UNSATISFIABLE
c 
c --- [ run-time profiling ] -------------------------------------------------
c 
c process time taken by individual solving procedures
c (percentage relative to process time for solving)
c 
c         0.00   91.16% search
c         0.00   45.73% unstable
c         0.00   44.21% lucky
c         0.00    0.00% simplify
c   =================================
c         0.00    0.10% solve
c 
c last line shows process time for solving
c (percentage relative to total process time)
c 
c --- [ statistics ] ---------------------------------------------------------
c 
c chronological:                 6        75.00 %  of conflicts
c conflicts:                     8     24390.24    per second
c decisions:                     8     24390.24    per second
c fixed:                       341        11.13 %  of all variables
c learned:                       7        87.50 %  per conflict
c minimized:                     0         0.00 %  learned literals
c propagations:                719         2.19 M  per second
c 
c seconds are measured in process time for solving
c 
c --- [ resources ] ----------------------------------------------------------
c 
c total process time since initialization:         0.35    seconds
c total real time since initialization:            0.53    seconds
c maximum resident set size of process:           17.82    MB
c 
c --- [ shutting down ] ------------------------------------------------------
c 
c exit 20

real	3m25.915s
user	122m31.352s
sys	2m44.024s
